p cnf 54 166
a 10 31 0
e 1 2 3 4 5 6 7 8 9 11 12 13 14 15 16 17 18 19 20 21 22 23 24 25 26 27 28 29 30 32 33 34 35 36 37 38 39 40 41 42 43 44 45 46 47 48 49 50 51 52 53 54 0
-1 -2 -3 0
1 2 -3 0
-1 2 3 0
1 -2 3 0
-5 -3 0
-5 -4 0
3 4 5 0
3 5 -6 0
-3 -5 -6 0
3 -5 6 0
-3 5 6 0
1 2 -7 0
-1 -2 -7 0
1 -2 7 0
-1 2 7 0
-8 -6 0
-8 -7 0
6 7 8 0
-4 -9 -10 0
4 9 -10 0
-4 9 10 0
4 -9 10 0
12 10 0
12 -11 0
-10 11 -12 0
-14 12 0
-14 13 0
-12 -13 14 0
11 1 -15 0
-11 -1 -15 0
11 -1 15 0
-11 1 15 0
-15 -16 -17 0
15 16 -17 0
-15 16 17 0
15 -16 17 0
-18 -14 0
-18 17 0
14 -17 18 0
-19 -8 0
-19 -18 0
8 18 19 0
21 -20 0
21 -2 0
20 2 -21 0
14 -21 -22 0
-14 21 -22 0
14 21 22 0
-14 -21 22 0
-23 1 0
-23 1 0
-1 23 0
23 -11 -24 0
-23 11 -24 0
23 11 24 0
-23 -11 24 0
-25 22 0
-25 -24 0
-22 24 25 0
26 19 0
26 -25 0
-19 25 -26 0
-27 -4 -28 0
27 4 -28 0
-27 4 28 0
27 -4 28 0
3 10 -29 0
-3 -10 -29 0
3 -10 29 0
-3 10 29 0
29 -7 -30 0
-29 7 -30 0
29 7 30 0
-29 -7 30 0
31 -5 0
31 30 0
5 -30 -31 0
-32 -28 0
-32 31 0
28 -31 32 0
-33 -4 0
-33 -7 0
4 7 33 0
-3 -33 -34 0
3 33 -34 0
-3 33 34 0
3 -33 34 0
14 -11 -35 0
-14 11 -35 0
14 11 35 0
-14 -11 35 0
-36 -34 0
-36 -35 0
34 35 36 0
37 -3 0
37 -10 0
3 10 -37 0
-38 -30 0
-38 -37 0
30 37 38 0
39 36 0
39 38 0
-36 -38 -39 0
-40 -32 0
-40 -39 0
32 39 40 0
41 -9 0
41 4 0
9 -4 -41 0
-42 -41 0
-42 -27 0
41 27 42 0
-44 42 0
-44 43 0
-42 -43 44 0
45 -40 0
45 44 0
40 -44 -45 0
-46 -13 0
-46 -20 0
13 20 46 0
46 -27 -47 0
-46 27 -47 0
46 27 47 0
-46 -27 47 0
27 -11 -48 0
-27 11 -48 0
27 11 48 0
-27 -11 48 0
27 48 -49 0
-27 -48 -49 0
27 -48 49 0
-27 48 49 0
-47 49 -50 0
47 -49 -50 0
-47 -49 50 0
47 49 50 0
51 -2 0
51 20 0
2 -20 -51 0
50 51 -52 0
-50 -51 -52 0
50 -51 52 0
-50 51 52 0
53 45 0
53 -52 0
-45 52 -53 0
54 26 0
54 53 0
-26 -53 -54 0
-54 -14 -44 36 0
44 -19 -52 -35 -46 5 0
-11 -31 13 -27 0
-38 -42 -1 50 0
25 -42 -32 -21 -3 0
-15 50 -47 11 30 0
-47 9 4 0
-25 27 54 22 30 -39 -38 0
28 -16 40 -17 24 0
51 54 -19 -18 -32 -52 17 0
-43 39 20 24 33 49 0
-28 -2 -42 0
-21 33 -24 -49 0
47 31 41 -42 52 37 0
-27 1 24 0
54 0
